c "724839.clq"
p edge 100 1344
e 1 17
e 1 18
e 1 19
e 1 20
e 1 21
e 1 22
e 1 26
e 1 28
e 1 32
e 1 33
e 1 35
e 1 37
e 1 45
e 1 49
e 1 87
e 1 91
e 1 93
e 2 17
e 2 18
e 2 19
e 2 20
e 2 21
e 2 23
e 2 24
e 2 27
e 2 29
e 2 30
e 2 31
e 2 32
e 2 33
e 2 36
e 2 39
e 2 41
e 2 44
e 2 58
e 2 64
e 2 67
e 2 72
e 2 78
e 2 79
e 2 87
e 2 92
e 2 93
e 2 98
e 3 17
e 3 18
e 3 19
e 3 20
e 3 21
e 3 22
e 3 23
e 3 25
e 3 27
e 3 29
e 3 31
e 3 35
e 3 36
e 3 37
e 3 38
e 3 42
e 3 45
e 3 61
e 3 62
e 3 65
e 3 68
e 3 71
e 3 72
e 3 76
e 3 77
e 3 80
e 3 84
e 3 88
e 3 89
e 3 90
e 3 94
e 4 17
e 4 18
e 4 19
e 4 20
e 4 21
e 4 22
e 4 23
e 4 24
e 4 25
e 4 27
e 4 28
e 4 29
e 4 30
e 4 33
e 4 38
e 4 53
e 4 59
e 4 63
e 4 68
e 4 73
e 4 74
e 4 76
e 4 77
e 4 83
e 5 17
e 5 18
e 5 19
e 5 21
e 5 22
e 5 23
e 5 24
e 5 25
e 5 26
e 5 27
e 5 28
e 5 32
e 5 33
e 5 34
e 5 35
e 5 36
e 5 39
e 5 41
e 5 42
e 5 44
e 5 45
e 5 46
e 5 51
e 5 54
e 5 55
e 5 56
e 5 61
e 5 65
e 5 67
e 6 17
e 6 18
e 6 19
e 6 20
e 6 21
e 6 22
e 6 23
e 6 25
e 6 28
e 6 29
e 6 31
e 6 32
e 6 33
e 6 35
e 6 36
e 6 40
e 6 41
e 6 43
e 6 51
e 6 54
e 6 55
e 6 59
e 6 60
e 6 64
e 6 75
e 6 82
e 6 87
e 6 90
e 6 94
e 7 17
e 7 18
e 7 19
e 7 20
e 7 21
e 7 23
e 7 25
e 7 26
e 7 27
e 7 28
e 7 31
e 7 32
e 7 34
e 7 39
e 7 40
e 7 41
e 7 43
e 7 45
e 7 54
e 7 55
e 7 56
e 7 65
e 7 69
e 7 71
e 7 83
e 7 97
e 7 99
e 8 17
e 8 18
e 8 20
e 8 23
e 8 24
e 8 25
e 8 26
e 8 34
e 8 38
e 8 42
e 8 43
e 8 47
e 8 48
e 8 49
e 8 56
e 8 57
e 8 63
e 8 64
e 8 70
e 8 71
e 8 78
e 8 87
e 8 98
e 9 17
e 9 18
e 9 19
e 9 20
e 9 21
e 9 22
e 9 23
e 9 24
e 9 29
e 9 30
e 9 31
e 9 33
e 9 34
e 9 35
e 9 36
e 9 38
e 9 42
e 9 52
e 9 54
e 9 61
e 9 68
e 9 72
e 9 77
e 9 80
e 9 81
e 9 83
e 9 89
e 9 98
e 10 17
e 10 19
e 10 20
e 10 22
e 10 26
e 10 43
e 10 44
e 10 59
e 10 90
e 11 17
e 11 18
e 11 20
e 11 24
e 11 30
e 11 32
e 11 40
e 11 41
e 11 50
e 11 53
e 11 62
e 11 68
e 11 86
e 11 92
e 11 95
e 11 97
e 12 17
e 12 18
e 12 19
e 12 22
e 12 30
e 12 38
e 12 59
e 12 67
e 12 85
e 13 17
e 13 18
e 13 19
e 13 20
e 13 21
e 13 22
e 13 23
e 13 29
e 13 30
e 13 32
e 13 37
e 13 42
e 13 46
e 13 47
e 13 53
e 13 69
e 13 76
e 13 89
e 13 94
e 13 97
e 13 99
e 14 17
e 14 18
e 14 19
e 14 20
e 14 21
e 14 22
e 14 24
e 14 25
e 14 26
e 14 27
e 14 30
e 14 31
e 14 33
e 14 34
e 14 36
e 14 38
e 14 43
e 14 45
e 14 46
e 14 47
e 14 53
e 14 55
e 14 56
e 14 61
e 14 67
e 14 72
e 14 75
e 14 76
e 14 80
e 14 81
e 14 83
e 14 94
e 14 99
e 15 17
e 15 18
e 15 19
e 15 21
e 15 24
e 15 27
e 15 28
e 15 34
e 15 44
e 15 46
e 15 51
e 15 52
e 15 53
e 15 57
e 15 60
e 15 73
e 15 74
e 15 75
e 15 77
e 16 17
e 16 18
e 16 19
e 16 20
e 16 21
e 16 22
e 16 23
e 16 24
e 16 25
e 16 26
e 16 34
e 16 36
e 16 37
e 16 38
e 16 41
e 16 42
e 16 44
e 16 50
e 16 51
e 16 54
e 16 58
e 16 64
e 16 65
e 16 67
e 16 68
e 16 72
e 16 74
e 16 83
e 16 84
e 16 85
e 16 89
e 16 93
e 17 18
e 17 19
e 17 20
e 17 21
e 17 22
e 17 23
e 17 24
e 17 25
e 17 26
e 17 27
e 17 28
e 17 29
e 17 30
e 17 32
e 17 34
e 17 40
e 17 41
e 17 44
e 17 45
e 17 46
e 17 47
e 17 49
e 17 50
e 17 52
e 17 54
e 17 58
e 17 60
e 17 63
e 17 67
e 17 68
e 17 71
e 17 73
e 17 75
e 17 81
e 17 82
e 17 90
e 17 91
e 17 92
e 17 96
e 17 98
e 17 99
e 17 100
e 18 19
e 18 20
e 18 21
e 18 22
e 18 23
e 18 24
e 18 25
e 18 26
e 18 27
e 18 28
e 18 29
e 18 31
e 18 32
e 18 34
e 18 36
e 18 37
e 18 39
e 18 40
e 18 41
e 18 45
e 18 47
e 18 48
e 18 49
e 18 54
e 18 56
e 18 57
e 18 58
e 18 61
e 18 65
e 18 66
e 18 67
e 18 69
e 18 72
e 18 75
e 18 79
e 18 82
e 18 83
e 18 84
e 18 86
e 18 88
e 18 89
e 18 94
e 18 100
e 19 20
e 19 21
e 19 22
e 19 23
e 19 24
e 19 25
e 19 26
e 19 27
e 19 28
e 19 29
e 19 30
e 19 32
e 19 34
e 19 35
e 19 36
e 19 37
e 19 38
e 19 41
e 19 42
e 19 45
e 19 46
e 19 48
e 19 50
e 19 51
e 19 54
e 19 58
e 19 59
e 19 61
e 19 62
e 19 67
e 19 68
e 19 75
e 19 76
e 19 79
e 19 84
e 19 86
e 19 89
e 19 90
e 19 91
e 19 95
e 19 100
e 20 21
e 20 22
e 20 23
e 20 24
e 20 25
e 20 26
e 20 27
e 20 28
e 20 29
e 20 30
e 20 31
e 20 32
e 20 33
e 20 34
e 20 35
e 20 36
e 20 37
e 20 38
e 20 39
e 20 41
e 20 42
e 20 43
e 20 47
e 20 50
e 20 54
e 20 58
e 20 59
e 20 61
e 20 63
e 20 64
e 20 66
e 20 68
e 20 69
e 20 70
e 20 75
e 20 80
e 20 85
e 20 86
e 20 88
e 20 94
e 20 96
e 20 97
e 20 98
e 20 99
e 21 22
e 21 23
e 21 24
e 21 25
e 21 26
e 21 27
e 21 28
e 21 29
e 21 30
e 21 31
e 21 32
e 21 33
e 21 34
e 21 36
e 21 39
e 21 40
e 21 44
e 21 45
e 21 48
e 21 52
e 21 53
e 21 55
e 21 56
e 21 62
e 21 70
e 21 74
e 21 76
e 21 78
e 21 81
e 21 86
e 21 89
e 21 95
e 21 96
e 22 23
e 22 24
e 22 25
e 22 26
e 22 27
e 22 28
e 22 30
e 22 31
e 22 33
e 22 35
e 22 39
e 22 40
e 22 46
e 22 47
e 22 50
e 22 55
e 22 56
e 22 58
e 22 63
e 22 64
e 22 65
e 22 66
e 22 70
e 22 71
e 22 75
e 22 76
e 22 82
e 22 83
e 22 85
e 22 87
e 22 91
e 22 92
e 22 95
e 23 24
e 23 25
e 23 26
e 23 27
e 23 28
e 23 29
e 23 30
e 23 31
e 23 32
e 23 35
e 23 38
e 23 39
e 23 40
e 23 42
e 23 43
e 23 44
e 23 45
e 23 47
e 23 50
e 23 52
e 23 59
e 23 60
e 23 61
e 23 63
e 23 66
e 23 71
e 23 74
e 23 77
e 23 79
e 23 80
e 23 85
e 23 87
e 23 90
e 23 91
e 23 96
e 23 97
e 23 100
e 24 25
e 24 26
e 24 27
e 24 28
e 24 29
e 24 32
e 24 35
e 24 37
e 24 38
e 24 39
e 24 40
e 24 41
e 24 43
e 24 50
e 24 52
e 24 56
e 24 57
e 24 65
e 24 69
e 24 72
e 24 73
e 24 76
e 24 80
e 24 82
e 24 86
e 24 88
e 24 99
e 25 26
e 25 27
e 25 28
e 25 29
e 25 30
e 25 31
e 25 33
e 25 34
e 25 35
e 25 38
e 25 40
e 25 44
e 25 47
e 25 48
e 25 49
e 25 51
e 25 52
e 25 53
e 25 56
e 25 60
e 25 61
e 25 63
e 25 64
e 25 68
e 25 69
e 25 70
e 25 72
e 25 73
e 25 74
e 25 76
e 25 78
e 25 81
e 25 84
e 25 87
e 25 89
e 25 92
e 25 96
e 26 28
e 26 29
e 26 33
e 26 37
e 26 40
e 26 43
e 26 46
e 26 49
e 26 50
e 26 52
e 26 54
e 26 57
e 26 58
e 26 61
e 26 65
e 26 79
e 26 81
e 27 29
e 27 30
e 27 31
e 27 33
e 27 34
e 27 35
e 27 40
e 27 46
e 27 50
e 27 52
e 27 53
e 27 56
e 27 60
e 27 61
e 27 75
e 27 77
e 27 87
e 27 89
e 27 96
e 28 30
e 28 31
e 28 34
e 28 35
e 28 36
e 28 37
e 28 38
e 28 39
e 28 41
e 28 42
e 28 43
e 28 44
e 28 45
e 28 47
e 28 48
e 28 50
e 28 51
e 28 52
e 28 55
e 28 57
e 28 59
e 28 62
e 28 64
e 28 66
e 28 72
e 28 73
e 28 77
e 28 78
e 28 79
e 28 86
e 28 89
e 28 90
e 28 91
e 28 96
e 29 31
e 29 32
e 29 33
e 29 35
e 29 36
e 29 37
e 29 38
e 29 39
e 29 40
e 29 41
e 29 42
e 29 43
e 29 45
e 29 46
e 29 47
e 29 48
e 29 49
e 29 50
e 29 53
e 29 54
e 29 55
e 29 57
e 29 59
e 29 60
e 29 62
e 29 66
e 29 68
e 29 74
e 29 78
e 29 80
e 29 83
e 29 85
e 29 87
e 29 89
e 29 92
e 29 94
e 29 95
e 29 99
e 30 31
e 30 32
e 30 36
e 30 37
e 30 39
e 30 42
e 30 47
e 30 48
e 30 49
e 30 51
e 30 52
e 30 55
e 30 57
e 30 58
e 30 59
e 30 60
e 30 63
e 30 64
e 30 67
e 30 70
e 30 79
e 30 81
e 30 83
e 30 88
e 30 95
e 30 100
e 31 33
e 31 36
e 31 40
e 31 43
e 31 46
e 31 56
e 31 57
e 31 58
e 31 59
e 31 61
e 31 63
e 31 68
e 31 70
e 31 73
e 31 74
e 31 78
e 31 79
e 31 86
e 31 87
e 31 88
e 31 89
e 31 90
e 31 93
e 31 96
e 31 98
e 32 33
e 32 34
e 32 41
e 32 42
e 32 44
e 32 49
e 32 53
e 32 54
e 32 56
e 32 69
e 32 71
e 32 78
e 32 84
e 32 85
e 32 91
e 32 97
e 33 35
e 33 37
e 33 39
e 33 40
e 33 43
e 33 44
e 33 47
e 33 48
e 33 50
e 33 51
e 33 54
e 33 66
e 33 75
e 33 78
e 33 79
e 33 81
e 33 85
e 33 91
e 33 96
e 33 98
e 34 35
e 34 37
e 34 39
e 34 43
e 34 45
e 34 48
e 34 49
e 34 58
e 34 59
e 34 60
e 34 64
e 34 65
e 34 80
e 34 82
e 34 83
e 34 85
e 34 87
e 34 90
e 34 95
e 34 99
e 35 36
e 35 37
e 35 38
e 35 39
e 35 41
e 35 46
e 35 48
e 35 51
e 35 52
e 35 64
e 35 69
e 35 73
e 35 74
e 35 84
e 35 86
e 35 94
e 35 95
e 36 37
e 36 38
e 36 40
e 36 42
e 36 54
e 36 55
e 36 57
e 36 66
e 36 67
e 36 70
e 37 39
e 37 42
e 37 44
e 37 46
e 37 47
e 37 48
e 37 49
e 37 51
e 37 53
e 37 60
e 37 62
e 37 63
e 37 65
e 37 70
e 37 73
e 37 74
e 37 75
e 37 77
e 37 83
e 37 88
e 37 92
e 37 96
e 37 97
e 38 46
e 38 48
e 38 56
e 38 57
e 38 60
e 38 62
e 38 63
e 38 64
e 38 66
e 38 69
e 38 76
e 38 77
e 38 81
e 38 82
e 38 85
e 38 86
e 38 94
e 38 98
e 39 43
e 39 44
e 39 49
e 39 51
e 39 56
e 39 61
e 39 67
e 39 79
e 39 86
e 40 41
e 40 44
e 40 45
e 40 49
e 40 52
e 40 54
e 40 55
e 40 57
e 40 58
e 40 65
e 40 66
e 40 80
e 40 81
e 40 82
e 40 84
e 40 93
e 40 95
e 41 42
e 41 49
e 41 62
e 41 65
e 41 70
e 41 71
e 41 72
e 41 73
e 41 93
e 41 95
e 41 99
e 42 43
e 42 44
e 42 45
e 42 46
e 42 48
e 42 49
e 42 62
e 42 63
e 42 64
e 42 66
e 42 81
e 42 82
e 42 83
e 42 87
e 42 88
e 42 93
e 43 46
e 43 47
e 43 50
e 43 53
e 43 57
e 43 62
e 43 77
e 43 82
e 44 45
e 44 48
e 44 51
e 44 57
e 44 58
e 44 60
e 44 64
e 44 68
e 44 69
e 44 73
e 44 79
e 44 88
e 44 92
e 44 98
e 45 47
e 45 50
e 45 51
e 45 52
e 45 53
e 45 55
e 45 56
e 45 63
e 45 67
e 45 68
e 45 69
e 45 71
e 45 72
e 45 74
e 45 77
e 45 79
e 45 90
e 45 91
e 45 99
e 45 100
e 46 48
e 46 49
e 46 53
e 46 59
e 46 66
e 46 69
e 46 70
e 46 81
e 46 84
e 46 86
e 47 51
e 47 75
e 47 97
e 48 50
e 48 52
e 48 53
e 48 61
e 48 63
e 48 65
e 48 66
e 48 68
e 48 69
e 48 80
e 48 82
e 48 84
e 48 91
e 48 93
e 48 95
e 49 51
e 49 52
e 49 55
e 49 60
e 49 65
e 49 70
e 49 72
e 49 77
e 49 79
e 49 80
e 49 87
e 49 93
e 49 94
e 49 97
e 50 53
e 50 55
e 50 58
e 50 59
e 50 62
e 50 68
e 50 69
e 50 70
e 50 72
e 50 77
e 50 79
e 50 83
e 50 85
e 50 88
e 50 90
e 50 100
e 51 54
e 51 57
e 51 62
e 51 63
e 51 67
e 51 73
e 51 90
e 51 91
e 51 95
e 51 99
e 52 56
e 52 57
e 52 59
e 52 60
e 52 69
e 52 70
e 52 71
e 52 73
e 52 74
e 52 78
e 52 80
e 52 82
e 52 93
e 53 55
e 53 58
e 53 65
e 53 66
e 53 67
e 53 74
e 53 78
e 53 84
e 53 85
e 53 89
e 53 92
e 53 94
e 53 96
e 54 55
e 54 61
e 54 64
e 54 68
e 54 70
e 54 75
e 54 82
e 54 84
e 54 93
e 54 94
e 54 97
e 55 60
e 55 66
e 55 71
e 55 75
e 55 77
e 55 80
e 55 88
e 55 98
e 56 62
e 56 63
e 56 64
e 56 65
e 56 71
e 56 73
e 56 74
e 56 78
e 56 86
e 56 88
e 56 92
e 56 98
e 56 99
e 57 58
e 57 59
e 57 76
e 57 81
e 57 85
e 57 89
e 57 99
e 58 62
e 58 71
e 58 76
e 58 90
e 58 95
e 58 98
e 59 60
e 59 61
e 59 67
e 59 71
e 59 72
e 59 94
e 59 96
e 59 100
e 60 62
e 60 71
e 60 89
e 60 97
e 61 77
e 61 91
e 62 67
e 62 77
e 62 81
e 62 82
e 62 85
e 62 92
e 62 94
e 62 96
e 63 66
e 63 69
e 63 71
e 63 72
e 63 75
e 63 81
e 63 85
e 63 91
e 63 96
e 63 100
e 64 76
e 64 82
e 64 98
e 65 78
e 65 93
e 66 73
e 66 84
e 66 88
e 66 94
e 67 70
e 67 73
e 67 80
e 67 83
e 67 84
e 67 95
e 68 72
e 68 74
e 68 88
e 68 90
e 68 95
e 68 100
e 69 79
e 69 99
e 70 74
e 70 75
e 70 76
e 70 78
e 70 85
e 70 92
e 70 93
e 70 94
e 71 78
e 71 91
e 71 98
e 72 76
e 72 79
e 72 92
e 73 76
e 73 92
e 74 78
e 74 87
e 74 90
e 74 93
e 75 81
e 75 87
e 76 80
e 77 80
e 77 86
e 77 93
e 78 89
e 78 95
e 78 98
e 79 82
e 79 83
e 79 84
e 79 88
e 80 83
e 80 87
e 80 91
e 80 100
e 81 86
e 81 97
e 83 84
e 83 86
e 86 88
e 86 91
e 86 92
e 87 97
e 87 99
e 88 90
e 90 92
e 90 99
e 91 96
e 91 97
e 91 100
e 92 93
e 92 100
e 93 96
e 93 98
e 95 97
e 96 97
e 96 100
e 97 100
e 99 100
